
SCH

3744
50720
8092
8152
31259342
336
109360
16257682
7076
40798
57760
77488
106348
135770
176406
179606
173472
174872
174650
53732


0,090075
0,066127
0,073824
0,074356
0,053033
0,088864
0,072123
0,178423
0,072435
0,10152
0,11921
0,112687
0,158031
0,114445
0,147554
0,143853
0,141674
0,134085
0,16321
0,098254

SHMM
6746
52124
9250
8998
32706330
344
113940
16181588
7308
40788
57038
77292
106740
135228
176406
178942
173471
174324
174650
53894


0,076512
0,057745
0,062824
0,066868
0,058211
0,093153
0,08446
0,181792
0,069558
0,105246
0,116019
0,105973
0,158505
0,115688
0,147941
0,143902
0,141528
0,136043
0,163879
0,096909
